NPROCS=0
This instance is clustered!
Gurobi Optimizer version 9.0.0 build v9.0.0rc2 (linux64)
Optimize a model with 50 rows, 626 columns and 1250 nonzeros
Model fingerprint: 0xe80fc3fa
Variable types: 1 continuous, 625 integer (625 binary)
Coefficient statistics:
  Matrix range     [1e+00, 1e+00]
  Objective range  [1e+00, 6e+02]
  Bounds range     [1e+00, 1e+00]
  RHS range        [1e+00, 1e+00]
Presolve removed 2 rows and 72 columns
Presolve time: 0.01s
Presolved: 48 rows, 554 columns, 1106 nonzeros
Variable types: 1 continuous, 553 integer (553 binary)

Root relaxation: objective 1.406523e+03, 42 iterations, 0.00 seconds

    Nodes    |    Current Node    |     Objective Bounds      |     Work
 Expl Unexpl |  Obj  Depth IntInf | Incumbent    BestBd   Gap | It/Node Time

     0     0 1647.61399    0   16          - 1647.61399      -     -    0s
     0     0 1768.73180    0   40          - 1768.73180      -     -    0s
     0     2 1768.73180    0   40          - 1768.73180      -     -    0s
*  521   481              24    2271.2142262 1830.65572  19.4%   8.5    0s
*  557   483              32    2241.7797574 1830.65572  18.3%   8.5    0s
H 1871   441                    2047.0500969 1915.45955  6.43%   8.2    0s
H 1885   369                    2030.7579864 1915.45955  5.68%   8.1    1s

Cutting planes:
  Gomory: 3
  Zero half: 5
  Lazy constraints: 13

Explored 2707 nodes (26258 simplex iterations) in 1.64 seconds
Thread count was 12 (of 12 available processors)

Solution count 4: 2030.76 2047.05 2241.78 2271.21 

Optimal solution found (tolerance 1.00e-04)
Best objective 2.030757986392e+03, best bound 2.030757986392e+03, gap 0.0000%

User-callback calls 6532, time in user-callback 0.03 sec
/projects/academic/josewalt/caigao/RRARP_BD/BendersDecomp/ret/model_outs/n_23_e_10_algo_3.out
 =====>>>>> Solution is written to file in <../ret/model_outs> !!!
===>> All Done!
